\ Model vert
\ LP format - for model browsing. Use MPS format to capture full model detail.
Minimize
  145596.9159161937 S_coef + 972.8041367868353 Constant + [
   1.0895544705600001e+07 S_coef ^2 ] / 2 
Subject To
Bounds
 -1000 <= S_coef <= 1000
 Constant = 1
End
